[1] Reading Data...
[1] Solving...
Optimize a model with 17809 rows, 450 columns and 35618 nonzeros
Variable types: 0 continuous, 450 integer (450 binary)
Coefficient statistics:
  Matrix range     [1e+00, 1e+00]
  Objective range  [1e+00, 1e+00]
  Bounds range     [0e+00, 0e+00]
  RHS range        [1e+00, 1e+00]
Found heuristic solution: objective 23.0000000
Presolve removed 14356 rows and 0 columns
Presolve time: 0.47s
Presolved: 3453 rows, 450 columns, 20756 nonzeros
Variable types: 0 continuous, 450 integer (450 binary)

Root relaxation: objective 5.427452e+01, 2513 iterations, 1.60 seconds

    Nodes    |    Current Node    |     Objective Bounds      |     Work
 Expl Unexpl |  Obj  Depth IntInf | Incumbent    BestBd   Gap | It/Node Time

     0     0   54.27452    0  379   23.00000   54.27452   136%     -    2s
H    0     0                      24.0000000   54.27452   126%     -    2s
H    0     0                      25.0000000   54.27452   117%     -    2s
     0     0   30.45455    0  152   25.00000   30.45455  21.8%     -    4s
     0     0   30.41935    0  142   25.00000   30.41935  21.7%     -    4s
     0     0   30.41935    0  133   25.00000   30.41935  21.7%     -    4s
     0     0   30.00000    0  154   25.00000   30.00000  20.0%     -    4s
     0     0   30.00000    0  139   25.00000   30.00000  20.0%     -    4s
     0     0   30.00000    0  157   25.00000   30.00000  20.0%     -    4s
     0     0   30.00000    0  144   25.00000   30.00000  20.0%     -    5s
     0     0   30.00000    0  119   25.00000   30.00000  20.0%     -    5s
     0     0   30.00000    0  126   25.00000   30.00000  20.0%     -    5s
     0     0   30.00000    0  109   25.00000   30.00000  20.0%     -    6s
     0     0   30.00000    0  126   25.00000   30.00000  20.0%     -    6s
     0     0   30.00000    0  133   25.00000   30.00000  20.0%     -    7s
     0     0   30.00000    0  123   25.00000   30.00000  20.0%     -    7s
     0     0   30.00000    0  138   25.00000   30.00000  20.0%     -    7s
     0     0   30.00000    0  138   25.00000   30.00000  20.0%     -    7s
     0     2   30.00000    0  138   25.00000   30.00000  20.0%     -    9s
     7    12   30.00000    3  112   25.00000   30.00000  20.0%   312   10s
H   29    29                      26.0000000   30.00000  15.4%   196   10s
H   65    53                      27.0000000   30.00000  11.1%   136   10s
   652   253   28.80000   20   65   27.00000   30.00000  11.1%  59.1   15s
  1466   534     cutoff   38        27.00000   30.00000  11.1%  60.9   20s
  1947   721   28.50000   17   60   27.00000   30.00000  11.1%  61.1   25s
  2061   752   28.83333   16  138   27.00000   30.00000  11.1%  60.9   30s
  2064   754   30.00000    3  140   27.00000   30.00000  11.1%  60.8   36s
  2067   756   28.41667   15  149   27.00000   30.00000  11.1%  60.7   40s
  2070   758   29.39623   28   96   27.00000   30.00000  11.1%  60.6   45s
  2078   763   29.20000   16  120   27.00000   30.00000  11.1%  60.4   50s
  2084   767   28.85714   29  127   27.00000   30.00000  11.1%  60.2   56s
  2085   771   30.00000   13  119   27.00000   30.00000  11.1%  69.6   60s
  2107   790   30.00000   17  107   27.00000   30.00000  11.1%  70.3   65s
  2479   939   29.75000   50   75   27.00000   30.00000  11.1%  71.8   70s
  2724   991   28.88889   64   62   27.00000   30.00000  11.1%  69.5   75s
* 3239   708              39      28.0000000   30.00000  7.14%  64.7   78s
* 3414   343              38      29.0000000   30.00000  3.45%  63.7   79s
  3579   273   29.00000   14  138   29.00000   30.00000  3.45%  63.6   80s
  3582   275   29.00000   23  136   29.00000   30.00000  3.45%  63.5   87s
  3585   277   29.00000   21  129   29.00000   30.00000  3.45%  63.5   90s
  3588   279   29.00000   20  153   29.00000   30.00000  3.45%  63.4   95s
  3594   283   30.00000    9  124   29.00000   30.00000  3.45%  63.3  100s
  3600   287   29.33333   18  139   29.00000   30.00000  3.45%  63.2  107s
  3603   292   30.00000   25  121   29.00000   30.00000  3.45%  68.8  113s
  3605   293   30.00000   26   99   29.00000   30.00000  3.45%  68.9  115s
  3644   305   30.00000   32   78   29.00000   30.00000  3.45%  69.4  120s
  3900   338 infeasible   37        29.00000   30.00000  3.45%  69.8  125s
  4340   336   30.00000   45   80   29.00000   30.00000  3.45%  69.9  130s
  4421   312   30.00000   49   58   29.00000   30.00000  3.45%  69.7  136s
  5127   421   30.00000   47   74   29.00000   30.00000  3.45%  68.3  141s
  6012   716   30.00000   70   72   29.00000   30.00000  3.45%  66.3  147s
  6326   658   30.00000   58   74   29.00000   30.00000  3.45%  65.7  150s
  7072   832 infeasible   62        29.00000   30.00000  3.45%  65.8  156s
  7723   931 infeasible   34        29.00000   30.00000  3.45%  67.0  163s
  7763   885   30.00000   36   78   29.00000   30.00000  3.45%  67.0  165s
  8703   963 infeasible   63        29.00000   30.00000  3.45%  67.1  171s
  9177   993   30.00000   54   82   29.00000   30.00000  3.45%  68.2  176s
  9784  1130 infeasible   62        29.00000   30.00000  3.45%  68.5  180s
 10141  1266 infeasible   90        29.00000   30.00000  3.45%  68.7  185s
 10444  1221 infeasible   58        29.00000   30.00000  3.45%  69.9  190s
 11101  1345   30.00000   43   82   29.00000   30.00000  3.45%  70.0  196s
 11469  1493 infeasible   35        29.00000   30.00000  3.45%  69.9  200s
 11844  1433   30.00000   73   77   29.00000   30.00000  3.45%  70.0  205s
 12455  1618 infeasible   60        29.00000   30.00000  3.45%  70.9  211s
 12832  1754   30.00000   60   80   29.00000   30.00000  3.45%  71.2  216s
 13234  1717 infeasible   46        29.00000   30.00000  3.45%  71.4  221s
 13760  1760 infeasible   63        29.00000   30.00000  3.45%  72.0  228s
 14298  1910   30.00000   45   64   29.00000   30.00000  3.45%  71.9  231s
 14668  2006 infeasible   56        29.00000   30.00000  3.45%  71.9  235s
 14857  1974   30.00000   58   70   29.00000   30.00000  3.45%  72.2  242s
 15314  2076 infeasible   52        29.00000   30.00000  3.45%  72.3  246s
 15829  2047 infeasible   51        29.00000   30.00000  3.45%  74.2  253s
 16045  2051 infeasible   46        29.00000   30.00000  3.45%  74.7  258s
 16092  2053 infeasible   49        29.00000   30.00000  3.45%  74.9  263s
 16124  2011 infeasible   49        29.00000   30.00000  3.45%  75.0  267s
 16449  2060   30.00000   69   88   29.00000   30.00000  3.45%  75.8  271s
 17076  2041 infeasible   48        29.00000   30.00000  3.45%  76.4  276s
 17256  2002 infeasible   68        29.00000   30.00000  3.45%  76.9  280s
 17529  2081   30.00000   52   72   29.00000   30.00000  3.45%  77.6  285s
 17988  2054 infeasible   43        29.00000   30.00000  3.45%  77.5  291s
 18375  1952 infeasible   34        29.00000   30.00000  3.45%  77.9  297s
 18652  2009 infeasible   46        29.00000   30.00000  3.45%  78.6  301s
 19158  2184   30.00000   54   85   29.00000   30.00000  3.45%  78.6  305s
 19482  2079 infeasible   40        29.00000   30.00000  3.45%  79.3  313s
 19773  2080   30.00000   55   79   29.00000   30.00000  3.45%  79.8  317s
 20259  2127 infeasible   56        29.00000   30.00000  3.45%  79.8  320s
 20409  2099 infeasible   47        29.00000   30.00000  3.45%  80.0  325s
 20708  2029   30.00000   51   71   29.00000   30.00000  3.45%  80.8  332s
 21094  2157   30.00000   71  138   29.00000   30.00000  3.45%  80.9  388s
 21096  2158   30.00000   64  347   29.00000   30.00000  3.45%  80.9  392s
 21097  2159   30.00000   54  135   29.00000   30.00000  3.45%  80.9  395s
 21101  2162   30.00000   94  144   29.00000   30.00000  3.45%  80.9  400s
 21105  2164   30.00000   48  127   29.00000   30.00000  3.45%  80.8  405s
 21110  2168   30.00000   63  117   29.00000   30.00000  3.45%  80.8  410s
 21114  2170   30.00000   66  136   29.00000   30.00000  3.45%  80.8  415s
 21116  2172   30.00000   56  101   29.00000   30.00000  3.45%  80.8  421s
 21118  2176   30.00000   37  139   29.00000   30.00000  3.45%  81.8  428s
 21120  2178   30.00000   38  123   29.00000   30.00000  3.45%  81.8  432s
 21124  2180   30.00000   39  115   29.00000   30.00000  3.45%  81.8  435s
 21136  2181   30.00000   40   97   29.00000   30.00000  3.45%  81.8  440s
 21154  2185   30.00000   43   87   29.00000   30.00000  3.45%  81.9  445s
 21189  2186   30.00000   47   82   29.00000   30.00000  3.45%  81.9  451s
 21317  2197   30.00000   71   73   29.00000   30.00000  3.45%  81.9  456s
 21866  2139 infeasible   71        29.00000   30.00000  3.45%  81.7  461s
 21934  2115   30.00000   52   91   29.00000   30.00000  3.45%  81.8  465s
 22227  2081   30.00000   47   75   29.00000   30.00000  3.45%  81.7  473s
 22272  2033   30.00000   57   84   29.00000   30.00000  3.45%  81.7  476s
 22635  2091   30.00000   72   80   29.00000   30.00000  3.45%  81.6  480s
 23003  2063 infeasible   57        29.00000   30.00000  3.45%  81.7  487s
 23014  2002   30.00000   60   67   29.00000   30.00000  3.45%  81.7  490s
 23501  1840 infeasible   64        29.00000   30.00000  3.45%  81.8  497s
 24007  1703   30.00000   44   82   29.00000   30.00000  3.45%  82.0  502s
 24691  1634 infeasible   50        29.00000   30.00000  3.45%  82.1  508s
 24744  1549 infeasible   66        29.00000   30.00000  3.45%  82.1  511s
 25261  1369   30.00000   66   48   29.00000   30.00000  3.45%  82.4  516s
 25899  1211   30.00000   71   85   29.00000   30.00000  3.45%  82.6  521s
 26303  1214 infeasible   60        29.00000   30.00000  3.45%  82.6  527s
 26320  1124   30.00000   52   60   29.00000   30.00000  3.45%  82.6  530s
 27078   860 infeasible   63        29.00000   30.00000  3.45%  82.4  536s
 27668   671 infeasible   72        29.00000   30.00000  3.45%  82.5  541s
 28264   670 infeasible   49        29.00000   30.00000  3.45%  82.7  547s
 28644   772 infeasible   50        29.00000   30.00000  3.45%  82.8  552s
 28701   692 infeasible   66        29.00000   30.00000  3.45%  82.8  555s
 29405   820   30.00000   98   79   29.00000   30.00000  3.45%  83.0  562s
 29699   788 infeasible   49        29.00000   30.00000  3.45%  83.4  566s
 30036   844   30.00000   64   81   29.00000   30.00000  3.45%  83.6  571s
 30091   766 infeasible   74        29.00000   30.00000  3.45%  83.5  575s
 30694   698   30.00000   56   91   29.00000   30.00000  3.45%  83.6  580s
 31293   664   30.00000   54   63   29.00000   30.00000  3.45%  83.8  587s
 31786   724 infeasible   77        29.00000   30.00000  3.45%  83.7  590s
 32035   715 infeasible   67        29.00000   30.00000  3.45%  83.8  595s
 32598   683 infeasible   64        29.00000   30.00000  3.45%  84.1  603s
 32946   693 infeasible   46        29.00000   30.00000  3.45%  84.3  607s
 33257   658   30.00000   57   48   29.00000   30.00000  3.45%  84.5  610s
 33562   682 infeasible   60        29.00000   30.00000  3.45%  84.6  615s
 34033   635 infeasible   65        29.00000   30.00000  3.45%  84.8  623s
 34347   690   30.00000   45   97   29.00000   30.00000  3.45%  84.9  628s
 34812   830   30.00000   55   89   29.00000   30.00000  3.45%  85.0  632s
 35376   973 infeasible   56        29.00000   30.00000  3.45%  85.1  638s
 35500   901 infeasible   57        29.00000   30.00000  3.45%  85.2  640s
 35782   871   30.00000   64   71   29.00000   30.00000  3.45%  85.3  645s
 36517   846 infeasible   52        29.00000   30.00000  3.45%  85.5  652s
 36845   853 infeasible   56        29.00000   30.00000  3.45%  85.7  655s
 37248   883   30.00000   67   44   29.00000   30.00000  3.45%  85.7  660s
 37910   853 infeasible   69        29.00000   30.00000  3.45%  85.7  666s
 38243   840 infeasible   73        29.00000   30.00000  3.45%  85.6  671s
 38684   985   30.00000   68   81   29.00000   30.00000  3.45%  85.6  676s
 38790   925   30.00000   60   63   29.00000   30.00000  3.45%  85.6  680s
 39564   910 infeasible   74        29.00000   30.00000  3.45%  85.8  687s
 39981   908 infeasible   79        29.00000   30.00000  3.45%  85.9  690s
 40292   909 infeasible   72        29.00000   30.00000  3.45%  85.9  697s
 40419   862   30.00000   57   92   29.00000   30.00000  3.45%  85.9  701s
 40927   985   30.00000   52   66   29.00000   30.00000  3.45%  86.0  705s
 41744  1071 infeasible   67        29.00000   30.00000  3.45%  86.5  712s
 42045  1047 infeasible   59        29.00000   30.00000  3.45%  86.5  716s
 42385  1007   30.00000   55   78   29.00000   30.00000  3.45%  86.5  720s
 42775  1101 infeasible   61        29.00000   30.00000  3.45%  86.6  725s
 43146  1002 infeasible   55        29.00000   30.00000  3.45%  86.6  733s
 43562  1006   30.00000   58   50   29.00000   30.00000  3.45%  86.8  736s
 43887   986   30.00000   61   56   29.00000   30.00000  3.45%  86.9  740s
 44536   928 infeasible   66        29.00000   30.00000  3.45%  87.2  747s
 44930  1003 infeasible   69        29.00000   30.00000  3.45%  87.3  753s
 44949   928 infeasible   70        29.00000   30.00000  3.45%  87.3  757s
*45269     0              60      30.0000000   30.00000  0.00%  87.4  757s

Cutting planes:
  Cover: 7
  Clique: 540
  Flow cover: 1
  Inf proof: 2
  Zero half: 2

Explored 45371 nodes (3978390 simplex iterations) in 758.06 seconds
Thread count was 4 (of 4 available processors)

Solution count 8: 30 29 28 ... 23

Optimal solution found (tolerance 1.00e-04)
Best objective 3.000000000000e+01, best bound 3.000000000000e+01, gap 0.0000%
[1] Generating Graphs:
[1] Generating: ./../results/frb30-15-3/frb30-15-3-Green.jpeg
[1] Generating: ./../results/frb30-15-3/frb30-15-3-Blue.jpeg
[1] Generating: ./../results/frb30-15-3/frb30-15-3-Orange.jpeg
[1] Generating: ./../results/frb30-15-3/frb30-15-3-Purple.jpeg
[1] Generating: ./../results/frb30-15-3/frb30-15-3-Pink.jpeg
[1] Generating: ./../results/frb30-15-3/frb30-15-3-Red.jpeg
[1] Done.
